eprime_models/quasigroup/quasigroup.param.fzn
predicate gecode_global_cardinality(array[int] of var int: x, array[int] of int: cover, array[int] of var int: counts);
constraint bool_eq(true,true);
solve :: int_search([1, 2, 3, 4, 4, 1, 2, 3, 3, 4, 1, 2, 2, 3, 4, 1], input_order, indomain_min, complete)
 satisfy;
