eprime_models/quasigroup/quasigroup.param.solution
language ESSENCE' 1.0
letting puzzle be [[1, 2, 3, 4], 
[4, 1, 2, 3], 
[3, 4, 1, 2], 
[2, 3, 4, 1]]
